# Solution for model obj
# Objective value = 3
x05 0
x07 0
x06 0
x16 0
x15 0
x10 0
x24 1
x20 0
x27 0
x36 0
x35 0
x37 0
x41 0
x46 0
x47 0
x50 0
x57 0
x54 0
x65 0
x67 0
x66 1
x77 0
x70 1
x74 0
x85 0
x87 0
x86 0
x92 0
x96 0
x95 0
x106 0
x104 0
x100 0
